% number of games is 46
num = 46;
cap = 5;
refill = 2;
fun = [0, -10, -4, -15, -9, 6, 6, 18, -6, -19, -18, 18, 14, 15, -6, -20, -12, 14, -3, 1, -3, 19, 3, 9, 10, -8, -5, -13, -4, 5, 18, 17, 9, -20, -6, 7, -16, 7, -13, 20, 16, 0, 13, 8, -20, -16];
